500
1000
380
380
380
380
378
378
378
378
377
377
375
374
374
373
372
372
371
370
369
368
367
365
363
363
362
362
361
360
359
359
358
358
357
357
357
357
356
355
354
353
352
352
351
351
351
349
349
349
348
347
347
347
346
344
344
343
340
339
339
337
336
335
335
335
335
335
332
331
331
331
330
330
329
329
327
326
326
325
325
323
322
321
321
321
320
317
317
316
315
314
312
312
311
311
310
310
309
307
306
306
306
303
303
302
301
300
299
298
298
297
297
294
294
294
293
292
292
292
291
291
290
290
289
289
288
288
287
285
284
284
283
282
281
281
280
279
278
276
275
274
274
274
273
272
272
271
271
271
271
270
270
269
269
269
268
267
266
266
265
265
264
264
264
264
264
263
260
260
259
259
256
256
256
256
256
255
255
255
254
253
253
251
251
250
250
250
249
248
248
248
247
246
246
245
245
245
243
242
242
241
240
239
237
236
236
236
235
234
233
232
230
230
229
228
228
228
228
228
226
225
223
222
220
220
219
218
216
215
213
212
212
211
210
209
209
209
208
208
205
205
204
203
202
202
202
202
202
200
199
198
198
198
198
197
196
196
195
194
194
193
193
192
192
192
191
189
189
188
186
186
186
185
183
183
183
183
181
180
180
180
179
178
177
176
176
176
175
175
174
172
171
169
169
168
168
167
167
165
165
165
164
164
164
163
161
160
160
158
158
158
157
157
157
156
156
156
155
155
155
154
154
151
151
150
149
149
148
148
147
146
145
144
144
143
141
141
139
138
137
137
136
135
135
135
132
132
132
130
130
130
129
129
128
128
128
127
126
126
126
126
126
126
125
123
122
122
121
120
120
119
119
119
117
116
115
115
115
114
114
113
112
111
111
110
109
108
108
107
106
105
105
104
104
104
102
101
101
100
99
98
98
98
95
95
95
94
93
93
92
91
91
90
90
89
89
88
86
83
82
82
81
80
79
77
77
75
75
73
72
72
72
72
70
69
69
67
66
65
65
65
65
64
64
64
64
64
64
62
59
58
58
57
55
55
53
52
51
48
48
48
48
47
46
46
46
46
46
46
45
44
43
43
39
39
39
37
37
36
34
32
32
31
31
31
29
28
27
27
26
26
25
24
24
23
23
23
23
22
22
22
